c Reduced graph for GEOM100a generated by Cyril Grelier
p edge 100 992
e 1 12
e 1 15
e 1 18
e 1 22
e 1 23
e 1 26
e 1 31
e 1 32
e 1 33
e 1 41
e 1 42
e 1 44
e 1 47
e 1 50
e 1 51
e 1 52
e 1 53
e 1 63
e 1 68
e 1 73
e 1 83
e 1 84
e 1 93
e 1 96
e 1 97
e 2 6
e 2 17
e 2 27
e 2 28
e 2 30
e 2 45
e 2 46
e 2 49
e 2 55
e 2 57
e 2 61
e 2 67
e 2 71
e 2 74
e 2 80
e 2 81
e 2 82
e 2 88
e 2 90
e 2 91
e 2 92
e 2 94
e 2 100
e 3 12
e 3 13
e 3 17
e 3 19
e 3 25
e 3 26
e 3 29
e 3 39
e 3 42
e 3 49
e 3 50
e 3 54
e 3 61
e 3 62
e 3 67
e 3 68
e 3 79
e 3 81
e 3 82
e 3 86
e 3 89
e 3 94
e 4 11
e 4 15
e 4 16
e 4 34
e 4 35
e 4 36
e 4 43
e 4 45
e 4 48
e 4 60
e 4 64
e 4 65
e 4 66
e 4 70
e 4 72
e 4 77
e 4 81
e 4 82
e 4 87
e 4 95
e 4 99
e 5 8
e 5 9
e 5 10
e 5 12
e 5 13
e 5 14
e 5 19
e 5 21
e 5 24
e 5 25
e 5 40
e 5 50
e 5 52
e 5 56
e 5 69
e 5 76
e 5 79
e 5 83
e 5 85
e 5 89
e 5 93
e 6 7
e 6 27
e 6 28
e 6 30
e 6 46
e 6 49
e 6 55
e 6 57
e 6 58
e 6 67
e 6 71
e 6 74
e 6 75
e 6 78
e 6 80
e 6 88
e 6 90
e 6 91
e 6 92
e 6 100
e 7 17
e 7 20
e 7 27
e 7 28
e 7 30
e 7 49
e 7 55
e 7 58
e 7 61
e 7 67
e 7 71
e 7 74
e 7 75
e 7 78
e 7 80
e 7 90
e 7 91
e 7 92
e 7 94
e 8 9
e 8 10
e 8 12
e 8 13
e 8 14
e 8 19
e 8 21
e 8 24
e 8 25
e 8 40
e 8 50
e 8 52
e 8 56
e 8 69
e 8 76
e 8 79
e 8 83
e 8 85
e 8 89
e 9 12
e 9 18
e 9 19
e 9 40
e 9 41
e 9 50
e 9 51
e 9 52
e 9 53
e 9 69
e 9 79
e 9 83
e 9 84
e 9 89
e 9 93
e 9 96
e 10 13
e 10 14
e 10 20
e 10 21
e 10 24
e 10 25
e 10 37
e 10 38
e 10 56
e 10 59
e 10 76
e 10 85
e 11 16
e 11 35
e 11 36
e 11 43
e 11 60
e 11 64
e 11 65
e 11 66
e 11 70
e 11 72
e 11 77
e 11 95
e 12 13
e 12 18
e 12 19
e 12 25
e 12 26
e 12 39
e 12 40
e 12 41
e 12 50
e 12 51
e 12 52
e 12 53
e 12 62
e 12 68
e 12 69
e 12 79
e 12 83
e 12 84
e 12 86
e 12 89
e 12 93
e 12 96
e 13 14
e 13 17
e 13 19
e 13 20
e 13 21
e 13 24
e 13 25
e 13 29
e 13 37
e 13 39
e 13 50
e 13 54
e 13 56
e 13 59
e 13 62
e 13 69
e 13 76
e 13 79
e 13 85
e 13 86
e 13 89
e 14 19
e 14 20
e 14 21
e 14 24
e 14 25
e 14 37
e 14 38
e 14 40
e 14 56
e 14 59
e 14 69
e 14 76
e 14 79
e 14 85
e 14 89
e 15 16
e 15 26
e 15 32
e 15 35
e 15 42
e 15 44
e 15 60
e 15 63
e 15 64
e 15 70
e 15 72
e 15 73
e 15 87
e 15 95
e 15 97
e 15 98
e 16 32
e 16 35
e 16 43
e 16 60
e 16 64
e 16 65
e 16 66
e 16 70
e 16 72
e 16 77
e 16 95
e 16 98
e 17 20
e 17 25
e 17 27
e 17 28
e 17 29
e 17 30
e 17 39
e 17 49
e 17 54
e 17 58
e 17 61
e 17 62
e 17 67
e 17 75
e 17 78
e 17 80
e 17 81
e 17 82
e 17 86
e 17 90
e 17 91
e 17 92
e 17 94
e 18 22
e 18 23
e 18 26
e 18 31
e 18 33
e 18 41
e 18 42
e 18 44
e 18 47
e 18 50
e 18 51
e 18 52
e 18 53
e 18 63
e 18 68
e 18 73
e 18 79
e 18 83
e 18 84
e 18 89
e 18 93
e 18 96
e 18 97
e 19 21
e 19 25
e 19 39
e 19 40
e 19 50
e 19 51
e 19 52
e 19 56
e 19 62
e 19 69
e 19 76
e 19 79
e 19 83
e 19 84
e 19 85
e 19 86
e 19 89
e 19 93
e 20 21
e 20 24
e 20 25
e 20 37
e 20 38
e 20 39
e 20 49
e 20 56
e 20 58
e 20 59
e 20 62
e 20 69
e 20 75
e 20 76
e 20 85
e 20 86
e 20 92
e 21 24
e 21 25
e 21 37
e 21 38
e 21 40
e 21 56
e 21 59
e 21 69
e 21 76
e 21 85
e 22 23
e 22 31
e 22 33
e 22 41
e 22 44
e 22 47
e 22 51
e 22 53
e 22 68
e 22 73
e 22 84
e 22 93
e 22 96
e 22 97
e 23 31
e 23 33
e 23 41
e 23 47
e 23 51
e 23 52
e 23 53
e 23 68
e 23 73
e 23 83
e 23 84
e 23 93
e 23 96
e 24 25
e 24 37
e 24 38
e 24 56
e 24 59
e 24 69
e 24 76
e 24 85
e 25 29
e 25 37
e 25 38
e 25 39
e 25 50
e 25 54
e 25 56
e 25 59
e 25 62
e 25 69
e 25 75
e 25 76
e 25 79
e 25 85
e 25 86
e 25 89
e 26 29
e 26 32
e 26 39
e 26 42
e 26 44
e 26 50
e 26 51
e 26 54
e 26 60
e 26 62
e 26 63
e 26 68
e 26 79
e 26 81
e 26 82
e 26 86
e 26 87
e 26 89
e 26 94
e 27 28
e 27 30
e 27 46
e 27 49
e 27 55
e 27 57
e 27 58
e 27 61
e 27 67
e 27 71
e 27 74
e 27 75
e 27 78
e 27 80
e 27 88
e 27 90
e 27 91
e 27 92
e 27 100
e 28 30
e 28 45
e 28 46
e 28 49
e 28 55
e 28 57
e 28 61
e 28 67
e 28 71
e 28 74
e 28 80
e 28 82
e 28 88
e 28 90
e 28 91
e 28 92
e 28 94
e 28 100
e 29 39
e 29 49
e 29 50
e 29 54
e 29 61
e 29 62
e 29 67
e 29 81
e 29 82
e 29 86
e 29 87
e 29 89
e 29 91
e 29 92
e 29 94
e 30 49
e 30 55
e 30 57
e 30 58
e 30 67
e 30 71
e 30 74
e 30 75
e 30 78
e 30 80
e 30 90
e 30 91
e 30 92
e 30 100
e 31 32
e 31 33
e 31 41
e 31 42
e 31 44
e 31 47
e 31 51
e 31 52
e 31 53
e 31 63
e 31 68
e 31 73
e 31 84
e 31 93
e 31 96
e 31 97
e 32 35
e 32 42
e 32 44
e 32 60
e 32 63
e 32 64
e 32 68
e 32 70
e 32 72
e 32 73
e 32 95
e 32 97
e 32 98
e 33 41
e 33 44
e 33 47
e 33 51
e 33 52
e 33 53
e 33 68
e 33 73
e 33 83
e 33 84
e 33 93
e 33 96
e 34 36
e 34 43
e 34 45
e 34 48
e 34 60
e 34 61
e 34 65
e 34 70
e 34 72
e 34 77
e 34 81
e 34 82
e 34 87
e 34 94
e 34 95
e 34 99
e 35 43
e 35 60
e 35 64
e 35 65
e 35 66
e 35 70
e 35 72
e 35 77
e 35 95
e 35 98
e 36 43
e 36 45
e 36 48
e 36 60
e 36 65
e 36 70
e 36 72
e 36 77
e 36 82
e 36 87
e 36 95
e 36 99
e 37 38
e 37 56
e 37 59
e 37 75
e 37 76
e 37 85
e 38 56
e 38 59
e 38 76
e 38 85
e 39 49
e 39 50
e 39 54
e 39 62
e 39 67
e 39 69
e 39 75
e 39 79
e 39 81
e 39 85
e 39 86
e 39 89
e 39 92
e 39 94
e 40 41
e 40 50
e 40 51
e 40 52
e 40 53
e 40 69
e 40 79
e 40 83
e 40 84
e 40 85
e 40 89
e 40 93
e 40 96
e 41 51
e 41 52
e 41 53
e 41 68
e 41 73
e 41 79
e 41 83
e 41 84
e 41 93
e 41 96
e 42 44
e 42 51
e 42 60
e 42 63
e 42 64
e 42 68
e 42 70
e 42 72
e 42 73
e 42 95
e 42 97
e 42 98
e 43 45
e 43 48
e 43 60
e 43 65
e 43 66
e 43 70
e 43 72
e 43 77
e 43 82
e 43 87
e 43 95
e 43 99
e 44 47
e 44 51
e 44 63
e 44 64
e 44 68
e 44 73
e 44 97
e 44 98
e 45 48
e 45 61
e 45 80
e 45 81
e 45 82
e 45 87
e 45 91
e 45 99
e 46 55
e 46 57
e 46 71
e 46 74
e 46 80
e 46 88
e 46 90
e 46 100
e 47 63
e 47 68
e 47 73
e 47 97
e 47 98
e 48 65
e 48 77
e 48 87
e 48 99
e 49 54
e 49 58
e 49 61
e 49 62
e 49 67
e 49 71
e 49 74
e 49 75
e 49 78
e 49 80
e 49 81
e 49 82
e 49 86
e 49 90
e 49 91
e 49 92
e 49 94
e 50 51
e 50 52
e 50 53
e 50 54
e 50 62
e 50 68
e 50 69
e 50 79
e 50 83
e 50 84
e 50 86
e 50 89
e 50 93
e 50 96
e 51 52
e 51 53
e 51 63
e 51 68
e 51 69
e 51 73
e 51 79
e 51 83
e 51 84
e 51 89
e 51 93
e 51 96
e 52 53
e 52 68
e 52 69
e 52 79
e 52 83
e 52 84
e 52 89
e 52 93
e 52 96
e 53 68
e 53 73
e 53 79
e 53 83
e 53 84
e 53 89
e 53 93
e 53 96
e 54 61
e 54 62
e 54 67
e 54 81
e 54 82
e 54 86
e 54 89
e 54 90
e 54 91
e 54 92
e 54 94
e 55 57
e 55 67
e 55 71
e 55 74
e 55 78
e 55 80
e 55 88
e 55 90
e 55 91
e 55 92
e 55 100
e 56 59
e 56 69
e 56 76
e 56 85
e 57 71
e 57 74
e 57 78
e 57 80
e 57 88
e 57 90
e 57 91
e 57 100
e 58 67
e 58 71
e 58 74
e 58 75
e 58 78
e 58 90
e 58 92
e 59 75
e 59 76
e 59 85
e 60 63
e 60 64
e 60 65
e 60 66
e 60 70
e 60 72
e 60 77
e 60 81
e 60 82
e 60 87
e 60 95
e 60 98
e 60 99
e 61 67
e 61 71
e 61 80
e 61 81
e 61 82
e 61 87
e 61 90
e 61 91
e 61 92
e 61 94
e 61 99
e 62 67
e 62 69
e 62 79
e 62 81
e 62 85
e 62 86
e 62 89
e 62 94
e 63 64
e 63 68
e 63 70
e 63 72
e 63 73
e 63 95
e 63 97
e 63 98
e 64 65
e 64 66
e 64 70
e 64 72
e 64 77
e 64 95
e 64 97
e 64 98
e 65 66
e 65 70
e 65 72
e 65 77
e 65 95
e 65 99
e 66 70
e 66 72
e 66 77
e 66 95
e 67 71
e 67 74
e 67 75
e 67 78
e 67 80
e 67 81
e 67 82
e 67 86
e 67 90
e 67 91
e 67 92
e 67 94
e 68 73
e 68 79
e 68 83
e 68 84
e 68 89
e 68 93
e 68 96
e 68 97
e 69 76
e 69 79
e 69 83
e 69 85
e 69 86
e 69 89
e 69 93
e 70 72
e 70 77
e 70 87
e 70 95
e 70 97
e 70 98
e 70 99
e 71 74
e 71 78
e 71 80
e 71 88
e 71 90
e 71 91
e 71 92
e 71 100
e 72 77
e 72 87
e 72 95
e 72 97
e 72 98
e 73 84
e 73 93
e 73 97
e 73 98
e 74 78
e 74 80
e 74 88
e 74 90
e 74 91
e 74 92
e 74 100
e 75 78
e 75 90
e 75 92
e 76 85
e 77 95
e 77 99
e 78 90
e 78 92
e 79 83
e 79 84
e 79 85
e 79 86
e 79 89
e 79 93
e 79 96
e 80 81
e 80 82
e 80 88
e 80 90
e 80 91
e 80 92
e 80 94
e 80 100
e 81 82
e 81 86
e 81 87
e 81 90
e 81 91
e 81 92
e 81 94
e 81 99
e 82 87
e 82 90
e 82 91
e 82 94
e 82 99
e 83 84
e 83 89
e 83 93
e 83 96
e 84 89
e 84 93
e 84 96
e 85 89
e 86 89
e 86 94
e 87 91
e 87 94
e 87 95
e 87 99
e 88 90
e 88 91
e 88 100
e 89 93
e 90 91
e 90 92
e 90 94
e 90 100
e 91 92
e 91 94
e 91 100
e 92 94
e 93 96
e 95 97
e 95 98
e 97 98
